python/teste/teste33
4 3
1 5 2 9 0 1
1 8 2 3 0 3
0 2 2 4 1 2
1 2 2 4 0 6
